
￼
Running calendari_v1.mzn, t1fix.dzn
1s 490msec

Using FZN solver C:\Program Files\MiniZinc\bin\fzn-cp-sat.EXE for solving, parameters: -a -p 16 -s -v 
%% File C:\\Users\\steam\\AppData\\Local\\Temp\\tmp16E.tmp.fzn parsed in 7 ms
%% Presolve model
%%   - done in 0 ms
%% Model C:\\Users\\steam\\AppData\\Local\\Temp\\tmp16E.tmp
%%   - array_bool_and: 2334
%%   - bool_lin_eq: 49
%%   - Minimization problem
%% Starting CP-SAT solver v9.11.4210
%% Parameters: log_search_progress: true log_to_stdout: false max_domain_size_when_encoding_eq_neq_constraints: 32 num_workers: 16
%% Initial optimization model 'C:\\Users\\steam\\AppData\\Local\\Temp\\tmp16E.tmp': (model_fingerprint: 0x5a6193513058587e)
%% Search strategy: on 8 variables, CHOOSE_MIN_DOMAIN_SIZE, SELECT_MAX_VALUE
%% Search strategy: on 8 variables, CHOOSE_MIN_DOMAIN_SIZE, SELECT_MAX_VALUE
%% Search strategy: on 8 variables, CHOOSE_MIN_DOMAIN_SIZE, SELECT_MAX_VALUE
%% Search strategy: on 8 variables, CHOOSE_MIN_DOMAIN_SIZE, SELECT_MAX_VALUE
%% Search strategy: on 8 variables, CHOOSE_MIN_DOMAIN_SIZE, SELECT_MAX_VALUE
%% Search strategy: on 8 variables, CHOOSE_MIN_DOMAIN_SIZE, SELECT_MAX_VALUE
%% Search strategy: on 8 variables, CHOOSE_MIN_DOMAIN_SIZE, SELECT_MAX_VALUE
%% Search strategy: on 8 variables, CHOOSE_MIN_DOMAIN_SIZE, SELECT_MAX_VALUE
%% Search strategy: on 8 variables, CHOOSE_MIN_DOMAIN_SIZE, SELECT_MAX_VALUE
%% Search strategy: on 8 variables, CHOOSE_MIN_DOMAIN_SIZE, SELECT_MAX_VALUE
%% Search strategy: on 8 variables, CHOOSE_MIN_DOMAIN_SIZE, SELECT_MAX_VALUE
%% Search strategy: on 8 variables, CHOOSE_MIN_DOMAIN_SIZE, SELECT_MAX_VALUE
%% Search strategy: on 8 variables, CHOOSE_MIN_DOMAIN_SIZE, SELECT_MAX_VALUE
%% Search strategy: on 8 variables, CHOOSE_MIN_DOMAIN_SIZE, SELECT_MAX_VALUE
%% Search strategy: on 8 variables, CHOOSE_MIN_DOMAIN_SIZE, SELECT_MAX_VALUE
%% Search strategy: on 8 variables, CHOOSE_MIN_DOMAIN_SIZE, SELECT_MAX_VALUE
%% Search strategy: on 8 variables, CHOOSE_MIN_DOMAIN_SIZE, SELECT_MAX_VALUE
%% Search strategy: on 8 variables, CHOOSE_MIN_DOMAIN_SIZE, SELECT_MAX_VALUE
%% Search strategy: on 8 variables, CHOOSE_MIN_DOMAIN_SIZE, SELECT_MAX_VALUE
%% Search strategy: on 8 variables, CHOOSE_MIN_DOMAIN_SIZE, SELECT_MAX_VALUE
%% Search strategy: on 8 variables, CHOOSE_MIN_DOMAIN_SIZE, SELECT_MAX_VALUE
%% Search strategy: on 8 variables, CHOOSE_MIN_DOMAIN_SIZE, SELECT_MAX_VALUE
%% Search strategy: on 8 variables, CHOOSE_MIN_DOMAIN_SIZE, SELECT_MAX_VALUE
%% Search strategy: on 8 variables, CHOOSE_MIN_DOMAIN_SIZE, SELECT_MAX_VALUE
%% Search strategy: on 8 variables, CHOOSE_MIN_DOMAIN_SIZE, SELECT_MAX_VALUE
%% Search strategy: on 8 variables, CHOOSE_MIN_DOMAIN_SIZE, SELECT_MAX_VALUE
%% Search strategy: on 8 variables, CHOOSE_MIN_DOMAIN_SIZE, SELECT_MAX_VALUE
%% Search strategy: on 8 variables, CHOOSE_MIN_DOMAIN_SIZE, SELECT_MAX_VALUE
%% Search strategy: on 8 variables, CHOOSE_MIN_DOMAIN_SIZE, SELECT_MAX_VALUE
%% Search strategy: on 8 variables, CHOOSE_MIN_DOMAIN_SIZE, SELECT_MAX_VALUE
%% Search strategy: on 8 variables, CHOOSE_MIN_DOMAIN_SIZE, SELECT_MAX_VALUE
%% Search strategy: on 8 variables, CHOOSE_MIN_DOMAIN_SIZE, SELECT_MAX_VALUE
%% Search strategy: on 8 variables, CHOOSE_MIN_DOMAIN_SIZE, SELECT_MAX_VALUE
%% Search strategy: on 8 variables, CHOOSE_MIN_DOMAIN_SIZE, SELECT_MAX_VALUE
%% Search strategy: on 8 variables, CHOOSE_MIN_DOMAIN_SIZE, SELECT_MAX_VALUE
%% Search strategy: on 8 variables, CHOOSE_MIN_DOMAIN_SIZE, SELECT_MAX_VALUE
%% Search strategy: on 8 variables, CHOOSE_MIN_DOMAIN_SIZE, SELECT_MAX_VALUE
%% Search strategy: on 8 variables, CHOOSE_MIN_DOMAIN_SIZE, SELECT_MAX_VALUE
%% Search strategy: on 8 variables, CHOOSE_MIN_DOMAIN_SIZE, SELECT_MAX_VALUE
%% Search strategy: on 8 variables, CHOOSE_MIN_DOMAIN_SIZE, SELECT_MAX_VALUE
%% Search strategy: on 8 variables, CHOOSE_MIN_DOMAIN_SIZE, SELECT_MAX_VALUE
%% Search strategy: on 8 variables, CHOOSE_MIN_DOMAIN_SIZE, SELECT_MAX_VALUE
%% Search strategy: on 8 variables, CHOOSE_MIN_DOMAIN_SIZE, SELECT_MAX_VALUE
%% Search strategy: on 8 variables, CHOOSE_MIN_DOMAIN_SIZE, SELECT_MAX_VALUE
%% Search strategy: on 8 variables, CHOOSE_MIN_DOMAIN_SIZE, SELECT_MAX_VALUE
%% Search strategy: on 8 variables, CHOOSE_MIN_DOMAIN_SIZE, SELECT_MAX_VALUE
%% Search strategy: on 8 variables, CHOOSE_MIN_DOMAIN_SIZE, SELECT_MAX_VALUE
%% Search strategy: on 8 variables, CHOOSE_MIN_DOMAIN_SIZE, SELECT_MAX_VALUE
%% Search strategy: on 8 variables, CHOOSE_MIN_DOMAIN_SIZE, SELECT_MAX_VALUE
%% Search strategy: on 49 variables, CHOOSE_MIN_DOMAIN_SIZE, SELECT_MIN_VALUE
%% #Variables: 786 (#ints: 1 in objective)
%%   - 786 constants in {0,1,779,793,813,2901,3044,53 ... 5130,15423,20381,20405,27771,30010,41150,233497} 
%% #kBoolAnd: 2'334 (#enforced: 2'334) (#literals: 7'002)
%% #kBoolOr: 2'334 (#enforced: 2'334) (#literals: 4'668)
%% #kLinearN: 49 (#terms: 392)
%% Starting presolve at 0.00s
%%   1.01e-05s  0.00e+00d  [operations_research::sat::CpModelPresolver::PresolveToFixPoint] 
%%   6.10e-06s  0.00e+00d  [operations_research::sat::CpModelPresolver::ExtractEncodingFromLinear] 
%% [Symmetry] Graph for symmetry has 786 nodes and 0 arcs.
%% [Symmetry] Symmetry computation done. time: 6.73e-05 dtime: 4.716e-05
%%   7.00e-06s  0.00e+00d  [operations_research::sat::CpModelPresolver::DetectDuplicateConstraintsWithDifferentEnforcements] 
%%   2.63e-04s  0.00e+00d  [operations_research::sat::CpModelPresolver::Probe] 
%%   2.40e-05s  0.00e+00d  [MaxClique] 
%%   8.00e-07s  0.00e+00d  [operations_research::sat::CpModelPresolver::PresolveToFixPoint] 
%%   1.80e-06s  0.00e+00d  [operations_research::sat::CpModelPresolver::ProcessAtMostOneAndLinear] 
%%   2.40e-06s  0.00e+00d  [operations_research::sat::CpModelPresolver::DetectDuplicateConstraints] 
%%   8.00e-07s  0.00e+00d  [operations_research::sat::CpModelPresolver::DetectDuplicateConstraintsWithDifferentEnforcements] 
%%   3.40e-06s  0.00e+00d  [operations_research::sat::CpModelPresolver::DetectDominatedLinearConstraints] 
%%   1.60e-06s  0.00e+00d  [operations_research::sat::CpModelPresolver::DetectDifferentVariables] 
%%   7.00e-07s  0.00e+00d  [operations_research::sat::CpModelPresolver::ProcessSetPPC] 
%%   6.40e-06s  0.00e+00d  [operations_research::sat::CpModelPresolver::FindAlmostIdenticalLinearConstraints] 
%%   2.80e-05s  0.00e+00d  [operations_research::sat::CpModelPresolver::FindBigAtMostOneAndLinearOverlap] 
%%   1.02e-05s  0.00e+00d  [operations_research::sat::CpModelPresolver::FindBigVerticalLinearOverlap] 
%%   9.00e-07s  0.00e+00d  [operations_research::sat::CpModelPresolver::FindBigHorizontalLinearOverlap] 
%%   3.20e-06s  0.00e+00d  [operations_research::sat::CpModelPresolver::MergeClauses] 
%%   5.00e-07s  0.00e+00d  [operations_research::sat::CpModelPresolver::PresolveToFixPoint] 
%%   1.51e-05s  0.00e+00d  [operations_research::sat::CpModelPresolver::ExpandObjective] 
%% Presolve summary:
%%   - 0 affine relations were detected.
%%   - rule 'bool_and: non-reified.' was applied 10 times.
%%   - rule 'bool_or: always true' was applied 2'329 times.
%%   - rule 'enforcement: always false' was applied 2'334 times.
%%   - rule 'linear: always true' was applied 49 times.
%%   - rule 'linear: fixed or dup variables' was applied 441 times.
%%   - rule 'objective: variable not used elsewhere' was applied 1 time.
%%   - rule 'presolve: 786 unused variables removed.' was applied 1 time.
%%   - rule 'presolve: iteration' was applied 1 time.
%% Presolved optimization model 'C:\\Users\\steam\\AppData\\Local\\Temp\\tmp16E.tmp': (model_fingerprint: 0xd7d5fa5f3a0fa8d5)
%% #Variables: 0 ( in objective)
%% 
%% Preloading model.
%% #Bound   0.00s best:inf   next:[233497,233497] initial_domain
%% [Symmetry] Graph for symmetry has 0 nodes and 0 arcs.
%% #Model   0.00s var:0/0 constraints:0/0
%% Starting search at 0.00s with 16 workers.
%% 5 full problem subsolvers: [default_lp, max_lp, no_lp, quick_restart, quick_restart_no_lp]
%% 11 first solution subsolvers: [fj(4), fj_lin, fs_random(2), fs_random_no_lp(2), fs_random_quick_restart, fs_random_quick_restart_no_lp]
%% 8 interleaved subsolvers: [feasibility_pump, ls(4), ls_lin(2), rins/rens]
%% 2 helper subsolvers: [neighborhood_helper, synchronization_agent]
%% #1       0.00s best:233497 next:[]         no_lp (fixed_bools=0/0)
%%%mzn-stat: boolVariables=0
%%%mzn-stat: failures=0
%%%mzn-stat: objective=233497
%%%mzn-stat: objectiveBound=233497
%%%mzn-stat: propagations=0
%%%mzn-stat: solveTime=0.004291
%%%mzn-stat-end
MATRIU DE PARTITS (DIA, ESTADI): 
Dia 1, Estadi 1: Cap partit
Dia 1, Estadi 2: Partit entre: {6,8}
Dia 1, Estadi 3: Cap partit
Dia 1, Estadi 4: Partit entre: 1..2
Dia 1, Estadi 5: Partit entre: {5,7}
Dia 1, Estadi 6: Cap partit
Dia 1, Estadi 7: Partit entre: 3..4
Dia 2, Estadi 1: Partit entre: 2..3
Dia 2, Estadi 2: Partit entre: {1,5}
Dia 2, Estadi 3: Cap partit
Dia 2, Estadi 4: Cap partit
Dia 2, Estadi 5: Partit entre: {4,8}
Dia 2, Estadi 6: Partit entre: 6..7
Dia 2, Estadi 7: Cap partit
Dia 3, Estadi 1: Partit entre: {1,7}
Dia 3, Estadi 2: Partit entre: {2,4}
Dia 3, Estadi 3: Partit entre: {3,8}
Dia 3, Estadi 4: Cap partit
Dia 3, Estadi 5: Cap partit
Dia 3, Estadi 6: Cap partit
Dia 3, Estadi 7: Partit entre: 5..6
Dia 4, Estadi 1: Cap partit
Dia 4, Estadi 2: Cap partit
Dia 4, Estadi 3: Partit entre: {4,7}
Dia 4, Estadi 4: Cap partit
Dia 4, Estadi 5: Partit entre: {2,6}
Dia 4, Estadi 6: Partit entre: {3,5}
Dia 4, Estadi 7: Partit entre: {1,8}
Dia 5, Estadi 1: Partit entre: {5,8}
Dia 5, Estadi 2: Cap partit
Dia 5, Estadi 3: Cap partit
Dia 5, Estadi 4: Partit entre: {3,6}
Dia 5, Estadi 5: Cap partit
Dia 5, Estadi 6: Partit entre: {1,4}
Dia 5, Estadi 7: Partit entre: {2,7}
Dia 6, Estadi 1: Cap partit
Dia 6, Estadi 2: Partit entre: {3,7}
Dia 6, Estadi 3: Partit entre: {1,6}
Dia 6, Estadi 4: Partit entre: 4..5
Dia 6, Estadi 5: Cap partit
Dia 6, Estadi 6: Partit entre: {2,8}
Dia 6, Estadi 7: Cap partit
Dia 7, Estadi 1: Partit entre: {4,6}
Dia 7, Estadi 2: Cap partit
Dia 7, Estadi 3: Partit entre: {2,5}
Dia 7, Estadi 4: Partit entre: 7..8
Dia 7, Estadi 5: Partit entre: {1,3}
Dia 7, Estadi 6: Cap partit
Dia 7, Estadi 7: Cap partit


KMs TOTALS: 1452
Repartiment d'equips (per distància): [163, 147, 200, 166, 196, 135, 208, 237]
SEGUIDORS FORA TOTAL: 233497
----------
%% #Done    0.00s no_lp
%% #Done    0.00s max_lp
%% Task timing                                n [     min,      max]      avg      dev     time         n [     min,      max]      avg      dev    dtime
%%                      'default_lp':         1 [533.00us, 533.00us] 533.00us   0.00ns 533.00us         0 [  0.00ns,   0.00ns]   0.00ns   0.00ns   0.00ns
%%                'feasibility_pump':         1 [ 52.40us,  52.40us]  52.40us   0.00ns  52.40us         0 [  0.00ns,   0.00ns]   0.00ns   0.00ns   0.00ns
%%                              'fj':         0 [  0.00ns,   0.00ns]   0.00ns   0.00ns   0.00ns         0 [  0.00ns,   0.00ns]   0.00ns   0.00ns   0.00ns
%%                              'fj':         1 [392.80us, 392.80us] 392.80us   0.00ns 392.80us         0 [  0.00ns,   0.00ns]   0.00ns   0.00ns   0.00ns
%%                              'fj':         1 [415.70us, 415.70us] 415.70us   0.00ns 415.70us         0 [  0.00ns,   0.00ns]   0.00ns   0.00ns   0.00ns
%%                              'fj':         1 [426.20us, 426.20us] 426.20us   0.00ns 426.20us         0 [  0.00ns,   0.00ns]   0.00ns   0.00ns   0.00ns
%%                          'fj_lin':         1 [398.60us, 398.60us] 398.60us   0.00ns 398.60us         0 [  0.00ns,   0.00ns]   0.00ns   0.00ns   0.00ns
%%                       'fs_random':         1 [315.00us, 315.00us] 315.00us   0.00ns 315.00us         0 [  0.00ns,   0.00ns]   0.00ns   0.00ns   0.00ns
%%                       'fs_random':         1 [503.30us, 503.30us] 503.30us   0.00ns 503.30us         0 [  0.00ns,   0.00ns]   0.00ns   0.00ns   0.00ns
%%                 'fs_random_no_lp':         1 [208.90us, 208.90us] 208.90us   0.00ns 208.90us         0 [  0.00ns,   0.00ns]   0.00ns   0.00ns   0.00ns
%%                 'fs_random_no_lp':         1 [327.70us, 327.70us] 327.70us   0.00ns 327.70us         0 [  0.00ns,   0.00ns]   0.00ns   0.00ns   0.00ns
%%         'fs_random_quick_restart':         1 [124.40us, 124.40us] 124.40us   0.00ns 124.40us         0 [  0.00ns,   0.00ns]   0.00ns   0.00ns   0.00ns
%%   'fs_random_quick_restart_no_lp':         1 [266.50us, 266.50us] 266.50us   0.00ns 266.50us         0 [  0.00ns,   0.00ns]   0.00ns   0.00ns   0.00ns
%%                              'ls':         0 [  0.00ns,   0.00ns]   0.00ns   0.00ns   0.00ns         0 [  0.00ns,   0.00ns]   0.00ns   0.00ns   0.00ns
%%                              'ls':         0 [  0.00ns,   0.00ns]   0.00ns   0.00ns   0.00ns         0 [  0.00ns,   0.00ns]   0.00ns   0.00ns   0.00ns
%%                              'ls':         0 [  0.00ns,   0.00ns]   0.00ns   0.00ns   0.00ns         0 [  0.00ns,   0.00ns]   0.00ns   0.00ns   0.00ns
%%                              'ls':         0 [  0.00ns,   0.00ns]   0.00ns   0.00ns   0.00ns         0 [  0.00ns,   0.00ns]   0.00ns   0.00ns   0.00ns
%%                          'ls_lin':         0 [  0.00ns,   0.00ns]   0.00ns   0.00ns   0.00ns         0 [  0.00ns,   0.00ns]   0.00ns   0.00ns   0.00ns
%%                          'ls_lin':         0 [  0.00ns,   0.00ns]   0.00ns   0.00ns   0.00ns         0 [  0.00ns,   0.00ns]   0.00ns   0.00ns   0.00ns
%%                          'max_lp':         1 [873.10us, 873.10us] 873.10us   0.00ns 873.10us         0 [  0.00ns,   0.00ns]   0.00ns   0.00ns   0.00ns
%%                           'no_lp':         1 [525.80us, 525.80us] 525.80us   0.00ns 525.80us         0 [  0.00ns,   0.00ns]   0.00ns   0.00ns   0.00ns
%%                   'quick_restart':         1 [854.70us, 854.70us] 854.70us   0.00ns 854.70us         0 [  0.00ns,   0.00ns]   0.00ns   0.00ns   0.00ns
%%             'quick_restart_no_lp':         1 [504.60us, 504.60us] 504.60us   0.00ns 504.60us         0 [  0.00ns,   0.00ns]   0.00ns   0.00ns   0.00ns
%%                       'rins/rens':         0 [  0.00ns,   0.00ns]   0.00ns   0.00ns   0.00ns         0 [  0.00ns,   0.00ns]   0.00ns   0.00ns   0.00ns
%% 
%% Search stats                        Bools  Conflicts  Branches  Restarts  BoolPropag  IntegerPropag
%%                      'default_lp':      0          0         0         0           0              0
%%                       'fs_random':      0          0         0         0           0              0
%%                       'fs_random':      0          0         0         0           0              0
%%                 'fs_random_no_lp':      0          0         0         0           0              0
%%                 'fs_random_no_lp':      0          0         0         0           0              0
%%         'fs_random_quick_restart':      0          0         0         0           0              0
%%   'fs_random_quick_restart_no_lp':      0          0         0         0           0              0
%%                          'max_lp':      0          0         0         0           0              1
%%                           'no_lp':      0          0         0         0           0              1
%%                   'quick_restart':      0          0         0         0           0              0
%%             'quick_restart_no_lp':      0          0         0         0           0              0
%% 
%% SAT stats                           ClassicMinim  LitRemoved  LitLearned  LitForgotten  Subsumed  MClauses  MDecisions  MLitTrue  MSubsumed  MLitRemoved  MReused
%%                      'default_lp':             0           0           0             0         0         0           0         0          0            0        0
%%                       'fs_random':             0           0           0             0         0         0           0         0          0            0        0
%%                       'fs_random':             0           0           0             0         0         0           0         0          0            0        0
%%                 'fs_random_no_lp':             0           0           0             0         0         0           0         0          0            0        0
%%                 'fs_random_no_lp':             0           0           0             0         0         0           0         0          0            0        0
%%         'fs_random_quick_restart':             0           0           0             0         0         0           0         0          0            0        0
%%   'fs_random_quick_restart_no_lp':             0           0           0             0         0         0           0         0          0            0        0
%%                          'max_lp':             0           0           0             0         0         0           0         0          0            0        0
%%                           'no_lp':             0           0           0             0         0         0           0         0          0            0        0
%%                   'quick_restart':             0           0           0             0         0         0           0         0          0            0        0
%%             'quick_restart_no_lp':             0           0           0             0         0         0           0         0          0            0        0
%% 
%% LNS stats       Improv/Calls  Closed  Difficulty  TimeLimit
%%   'rins/rens':           0/0      0%        0.50       0.10
%% 
%% Solutions (1)    Num   Rank
%%        'no_lp':    1  [1,1]
%% 
%% Objective bounds     Num
%%   'initial_domain':    1
%% 
%% Solution repositories    Added  Queried  Synchro
%%   'feasible solutions':      2        0        2
%%         'lp solutions':      0        0        0
%%                 'pump':      0        0
%% 
%% CpSolverResponse summary:
%% status: OPTIMAL
%% objective: 233497
%% best_bound: 233497
%% integers: 1
%% booleans: 0
%% conflicts: 0
%% branches: 0
%% propagations: 0
%% integer_propagations: 0
%% restarts: 0
%% lp_iterations: 0
%% walltime: 0.0218938
%% usertime: 0.0218939
%% deterministic_time: 0
%% gap_integral: 0
%% solution_fingerprint: 0x5dbcaa6aeb69b115
%% 
==========
%%%mzn-stat: nSolutions=1
%%%mzn-stat-end
%%%mzn-stat: boolVariables=0
%%%mzn-stat: failures=0
%%%mzn-stat: objective=233497
%%%mzn-stat: objectiveBound=233497
%%%mzn-stat: propagations=0
%%%mzn-stat: solveTime=0.0218938
%%%mzn-stat-end
Finished in 1s 490msec.
